#SOLVERNAME# PAJ_CPLEX_MOSEK_msdnostarts
#SOLVER# Pajarito.PajaritoSolver(3,3600.0,1.0e-5,true,CPLEX.CplexSolver(Any[(:CPX_PARAM_THREADS,1),(:CPX_PARAM_SCRIND,1),(:CPX_PARAM_EPINT,1.0e-8),(:CPX_PARAM_EPRHS,1.0e-7),(:CPX_PARAM_EPGAP,1.0e-5)]),Pajarito.UnsetSolver(),0,false,false,Mosek.MosekMathProgSolverInterface.MosekSolver(Any[(:LOG,0),(:NUM_THREADS,1)]),true,true,false,false,true,false,false,true,false,true,true,true,true,false,true,2.0,true,false,false,true,1.0e-10,1.0e-6)
#INSTANCE# estein5_B.cbf.gz
#TIMELIMIT# 3600.0

Problem dimensions:
       variables |       132
     constraints |       211
   nonzeros in A |       258

Cones summary:
Cone             | Count     | Min dim.  | Max dim. 
    Second order |        18 |         3 |         3

Variable types:
      continuous |       114
         integer |        18

Transforming data...               0.00s

Creating conic subproblem...       0.00s

Building MIP model...              0.01s

Solving conic relaxation...        0.00s
 - Relaxation status    =        Optimal
 - Relaxation objective =      -0.000000

Mixed integer rounding cuts applied:  4
Gomory fractional cuts applied:  3
User cuts applied:  117

Root node processing (before b&c):
  Real time             =    0.32 sec. (15.31 ticks)
Sequential b&c:
  Real time             =    0.01 sec. (6.01 ticks)
                          ------------
Total (root+branch&cut) =    0.33 sec. (21.32 ticks)
Warning: Control callbacks may disable some MIP features.
Tried aggregator 2 times.
MIP Presolve eliminated 153 rows and 21 columns.
Aggregator did 36 substitutions.
Reduced MIP has 238 rows, 111 columns, and 724 nonzeros.
Reduced MIP has 11 binaries, 0 generals, 0 SOSs, and 0 indicators.
Presolve time = 0.00 sec. (0.70 ticks)
Probing fixed 0 vars, tightened 12 bounds.
Probing time = 0.00 sec. (0.06 ticks)
Clique table members: 5.
MIP emphasis: balance optimality and feasibility.
MIP search method: traditional branch-and-cut.
Parallel mode: none, using 1 thread.
Root relaxation solution time = 0.00 sec. (0.83 ticks)

        Nodes                                         Cuts/
   Node  Left     Objective  IInf  Best Integer    Best Bound    ItCnt     Gap

      0     0        0.0000     8                      0.0000       78         
*     0+    0                            1.2053        0.0000           100.00%
      0     0        0.0000     8        1.2053      Cuts: 29      130  100.00%
      0     0        0.0000     8        1.2053      Cuts: 14      163  100.00%
      0     2        0.0000     8        1.2053        0.0000      163  100.00%
Elapsed time = 0.03 sec. (20.83 ticks, tree = 0.01 MB, solutions = 1)
*    10+   10                            1.2053        0.0000           100.00%
*    30+   18                            1.2053        0.1087            90.98%
*    40    24      integral     0        1.1932        0.1164     1260   90.25%

Starting MIP-solver-driven algorithm

MIP-solver-driven algorithm summary:
 - Status               =        Optimal
 - Best feasible        =  +1.193160e+00
 - Best bound           =  +1.193160e+00
 - Relative opt. gap    =     -1.084e-11
 - Total time (s)       =       2.29e-01

Timers (s):
 - Setup                =   1.06e-02
 -- Transform data      =   1.28e-04
 -- Create conic data   =   1.12e-03
 -- Create MIP data     =   9.34e-03
 - Algorithm            =   2.18e-01
 -- Solve relaxation    =   3.17e-03
 -- Get relaxation cuts =   6.35e-05
 -- MIP solver driving  =   2.14e-01
 -- Solve subproblems   =   1.43e-02
 -- Get subproblem cuts =   1.90e-03
 -- Get primal cuts     =   4.28e-04

Counters:
 - Lazy callbacks       =    35
 -- Integer repeats     =    26
 -- Conic subproblems   =     9
 --- Infeasible         =     0
 --- Optimal            =     9
 --- Suboptimal         =     0
 --- UserLimit          =     0
 --- ConicFailure       =     0
 --- Other status       =     0
 -- Feasible solutions  =    13
 --- From subproblems   =     9
 --- In lazy callback   =     4
 - Heuristic callbacks  =     0
 -- Solutions passed    =     0

Solution returned by MIP solver

Outer-approximation cuts added:
Cone             | Relax.    | Violated  | Nonviol. 
    Second order |        36 |       139 |         0

0 numerically unstable cone duals encountered

Distance to feasibility (negative indicates strict feasibility):
Cone             | Variable  | Constraint
          Linear |  0.00e+00 |  2.78e-17
    Second order |  2.97e-06 |        NA

Distance to integrality of integer/binary variables:
         integer |  0.00e+00


Implied bound cuts applied:  1
Flow cuts applied:  2
Mixed integer rounding cuts applied:  3
User cuts applied:  131

Root node processing (before b&c):
  Real time             =    0.03 sec. (20.83 ticks)
Sequential b&c:
  Real time             =    0.19 sec. (162.66 ticks)
                          ------------
Total (root+branch&cut) =    0.21 sec. (183.49 ticks)
#STATUS# Optimal
#OBJVAL# 1.1931599024525994
#OBJBOUND# 1.19315990246553
#TIMESOLVER# 0.22850489616394043
#TIMEALL# 0.2292039394378662
#SOLUTION# [0.211679,0.272131,0.26289766613010745,0.3406257281120832,0.7038224926157394,0.28949501457322674,0.721562,-0.064663,0.34100600000000003,0.2961236163757482,-0.11588166613010745,0.27251127188791685,0.721562,-0.5568064926157393,0.3236419854267733,0.10504663652372954,-0.086485,-0.05962500000000001,0.721562,-0.13770366613010745,-0.1281197281120832,0.721562,-0.5786284926157393,-0.07698901457322674,0.721562,0.529425,-0.06852000000000003,0.721562,0.47820633386989253,-0.1370147281120832,0.09362636359540842,0.037281507384260615,-0.08588401457322675,0.721562,0.5927530000000001,0.153101,0.721562,0.5415343338698926,0.0846062718879168,0.16895732777881084,0.10060950738426067,0.13573698542677326,0.0,0.0,0.0,0.721562,-0.05121866613010745,-0.06849472811208318,0.721562,-0.49214349261573936,-0.017364014573226727,0.08552698208546305,-0.05121866613010745,-0.06849472811208318,0.721562,-0.49214349261573936,-0.017364014573226727,0.4438789760934393,-0.4409248264856319,0.05113071353885644,0.0,0.2961236163757482,0.0,0.10504663652372954,0.0,0.0,0.0,0.0,0.09362636359540842,0.0,0.0,0.16895732777881084,0.0,0.0,0.0,0.08552698208546305,0.0,0.4438789760934393,0.0,1.0,0.0,1.0,0.0,0.0,0.0,-0.0,1.0,0.0,-0.0,1.0,1.0,0.0,0.0,1.0,0.0,1.0,1.0,0.0,1.0,0.0,1.0,1.0,1.0,1.0,0.0,1.0,1.0,0.0,0.0,1.0,1.0,0.0,1.0,0.0,0.0,0.42543838362425185,-0.0,0.6165153634762705,-0.0,-0.0,0.0,-0.0,0.6279356364045916,0.0,-0.0,0.5526046722211893,0.721562,-0.0,-0.0,0.636035017914537,0.0,0.27768302390656074]
